feasible solution found by trivial heuristic after 0.3 seconds, objective value 1.490600e+04
presolving:
(round 1, fast)       10557 del vars, 22019 del conss, 0 add conss, 0 chg bounds, 0 chg sides, 0 chg coeffs, 0 upgd conss, 0 impls, 0 clqs
(round 2, fast)       10563 del vars, 22019 del conss, 0 add conss, 0 chg bounds, 0 chg sides, 0 chg coeffs, 0 upgd conss, 0 impls, 0 clqs
   (0.9s) running MILP presolver
   (1.0s) MILP presolver found nothing
(round 3, exhaustive) 10563 del vars, 22019 del conss, 0 add conss, 0 chg bounds, 0 chg sides, 0 chg coeffs, 562 upgd conss, 0 impls, 0 clqs
   (1.5s) probing: 51/1500 (3.4%) - 0 fixings, 0 aggregations, 0 implications, 0 bound changes
   (1.5s) probing aborted: 50/50 successive totally useless probings
   (2.0s) symmetry computation started: requiring (bin +, int -, cont +), (fixed: bin -, int +, cont -)
   (2.1s) no symmetry present
presolving (4 rounds: 4 fast, 2 medium, 2 exhaustive):
 10563 deleted vars, 22019 deleted constraints, 0 added constraints, 0 tightened bounds, 0 added holes, 0 changed sides, 0 changed coefficients
 0 implications, 0 cliques
presolved problem has 1500 variables (1500 bin, 0 int, 0 impl, 0 cont) and 562 constraints
    562 constraints of type <logicor>
transformed objective value is always integral (scale: 1)
Presolving Time: 2.20

 time | node  | left  |LP iter|LP it/n|mem/heur|mdpt |vars |cons |rows |cuts |sepa|confs|strbr|  dualbound   | primalbound  |  gap   | compl. 
t 2.4s|     1 |     0 |     0 |     - | trivial|   0 |1500 | 562 |   0 |   0 |  0 |   0 |   0 | 0.000000e+00 | 1.183800e+04 |    Inf | unknown
p 2.5s|     1 |     0 |     0 |     - |   locks|   0 |1500 | 562 | 562 |   0 |  0 |   0 |   0 | 0.000000e+00 | 4.900000e+01 |    Inf | unknown
  2.9s|     1 |     0 |  1499 |     - |   564M |   0 |1500 | 562 | 562 |   0 |  0 |   0 |   0 | 2.185084e+00 | 4.900000e+01 |2142.48%| unknown
r 2.9s|     1 |     0 |  1499 |     - |rounding|   0 |1500 | 562 | 562 |   0 |  0 |   0 |   0 | 2.185084e+00 | 4.800000e+01 |2096.71%| unknown
r 2.9s|     1 |     0 |  1499 |     - |shifting|   0 |1500 | 562 | 562 |   0 |  0 |   0 |   0 | 2.185084e+00 | 4.700000e+01 |2050.95%| unknown
i 2.9s|     1 |     0 |  1499 |     - |  oneopt|   0 |1500 | 562 | 562 |   0 |  0 |   0 |   0 | 2.185084e+00 | 7.000000e+00 | 220.35%| unknown
  3.0s|     1 |     0 |  1499 |     - |   564M |   0 |1500 | 562 | 562 |   0 |  2 |   0 |   0 | 2.185084e+00 | 7.000000e+00 | 220.35%| unknown
  3.0s|     1 |     0 |  1499 |     - |   564M |   0 |1500 | 562 | 562 |   0 |  2 |   0 |   0 | 2.185084e+00 | 7.000000e+00 | 220.35%| unknown
L 9.8s|     1 |     0 |  5028 |     - |    rens|   0 |1500 | 562 | 562 |   0 |  4 |   0 |   0 | 2.185084e+00 | 6.000000e+00 | 174.59%| unknown
(run 1, node 1) restarting after 1033 global fixings of integer variables

presolving:
(round 1, fast)       1033 del vars, 0 del conss, 0 add conss, 0 chg bounds, 0 chg sides, 301795 chg coeffs, 0 upgd conss, 0 impls, 0 clqs
   (10.6s) running MILP presolver
   (10.6s) MILP presolver found nothing
presolving (2 rounds: 2 fast, 1 medium, 1 exhaustive):
 1033 deleted vars, 0 deleted constraints, 0 added constraints, 0 tightened bounds, 0 added holes, 0 changed sides, 301795 changed coefficients
 0 implications, 0 cliques
presolved problem has 467 variables (467 bin, 0 int, 0 impl, 0 cont) and 562 constraints
    562 constraints of type <logicor>
transformed objective value is always integral (scale: 1)
Presolving Time: 3.01
transformed 98/100 original solutions to the transformed problem space

 time | node  | left  |LP iter|LP it/n|mem/heur|mdpt |vars |cons |rows |cuts |sepa|confs|strbr|  dualbound   | primalbound  |  gap   | compl. 
 11.0s|     1 |     0 |  5460 |     - |   582M |   0 | 467 | 562 | 562 |   0 |  0 |   0 |   0 | 2.185084e+00 | 6.000000e+00 | 174.59%| unknown
 11.0s|     1 |     0 |  5460 |     - |   582M |   0 | 467 | 562 | 562 |   0 |  0 |   0 |   0 | 2.185084e+00 | 6.000000e+00 | 174.59%| unknown
 11.1s|     1 |     0 |  5563 |     - |   582M |   0 | 467 | 562 | 563 |   1 |  1 |   0 |   0 | 2.202824e+00 | 6.000000e+00 | 172.38%| unknown
 11.1s|     1 |     0 |  5563 |     - |   582M |   0 | 467 | 562 | 563 |   1 |  1 |   0 |   0 | 2.202824e+00 | 6.000000e+00 | 172.38%| unknown
 11.3s|     1 |     0 |  5777 |     - |   582M |   0 | 467 | 562 | 564 |   2 |  2 |   0 |   0 | 2.292344e+00 | 6.000000e+00 | 161.74%| unknown
 11.3s|     1 |     0 |  5777 |     - |   582M |   0 | 467 | 562 | 564 |   2 |  2 |   0 |   0 | 2.292344e+00 | 6.000000e+00 | 161.74%| unknown
(run 2, node 1) restarting after 137 global fixings of integer variables

(restart) converted 2 cuts from the global cut pool into linear constraints

presolving:
(round 1, fast)       137 del vars, 0 del conss, 0 add conss, 0 chg bounds, 0 chg sides, 39856 chg coeffs, 0 upgd conss, 0 impls, 0 clqs
   (14.6s) running MILP presolver
   (14.6s) MILP presolver found nothing
presolving (2 rounds: 2 fast, 1 medium, 1 exhaustive):
 137 deleted vars, 0 deleted constraints, 0 added constraints, 0 tightened bounds, 0 added holes, 0 changed sides, 39856 changed coefficients
 0 implications, 0 cliques
presolved problem has 330 variables (330 bin, 0 int, 0 impl, 0 cont) and 564 constraints
      2 constraints of type <linear>
    562 constraints of type <logicor>
transformed objective value is always integral (scale: 1)
Presolving Time: 3.28
transformed 91/100 original solutions to the transformed problem space

 time | node  | left  |LP iter|LP it/n|mem/heur|mdpt |vars |cons |rows |cuts |sepa|confs|strbr|  dualbound   | primalbound  |  gap   | compl. 
 14.8s|     1 |     0 |  8781 |     - |   579M |   0 | 330 | 564 | 564 |   0 |  0 |   0 |   0 | 2.292344e+00 | 6.000000e+00 | 161.74%| unknown
 14.9s|     1 |     0 |  8869 |     - |   579M |   0 | 330 | 564 | 565 |   1 |  2 |   0 |   0 | 2.307918e+00 | 6.000000e+00 | 159.97%| unknown
 14.9s|     1 |     0 |  8869 |     - |   579M |   0 | 330 | 564 | 565 |   1 |  2 |   0 |   0 | 2.307918e+00 | 6.000000e+00 | 159.97%| unknown
 15.0s|     1 |     0 |  8935 |     - |   579M |   0 | 330 | 564 | 566 |   2 |  3 |   0 |   0 | 2.317966e+00 | 6.000000e+00 | 158.85%| unknown
r15.0s|     1 |     0 |  8935 |     - |shifting|   0 | 330 | 564 | 566 |   2 |  3 |   0 |   0 | 2.317966e+00 | 6.000000e+00 | 158.85%| unknown
 15.0s|     1 |     0 |  8935 |     - |   579M |   0 | 330 | 564 | 566 |   2 |  3 |   0 |   0 | 2.317966e+00 | 6.000000e+00 | 158.85%| unknown
 15.1s|     1 |     0 |  9090 |     - |   581M |   0 | 330 | 564 | 567 |   3 |  4 |   0 |   0 | 2.363363e+00 | 6.000000e+00 | 153.88%| unknown
 15.1s|     1 |     0 |  9090 |     - |   581M |   0 | 330 | 564 | 567 |   3 |  4 |   0 |   0 | 2.363363e+00 | 6.000000e+00 | 153.88%| unknown
 15.3s|     1 |     0 |  9147 |     - |   583M |   0 | 330 | 564 | 568 |   4 |  5 |   0 |   0 | 2.367942e+00 | 6.000000e+00 | 153.38%| unknown
 15.4s|     1 |     0 |  9323 |     - |   585M |   0 | 330 | 564 | 569 |   5 |  6 |   0 |   0 | 2.433417e+00 | 6.000000e+00 | 146.57%| unknown
 15.5s|     1 |     0 |  9356 |     - |   587M |   0 | 330 | 564 | 570 |   6 |  7 |   0 |   0 | 2.435462e+00 | 6.000000e+00 | 146.36%| unknown
 15.6s|     1 |     0 |  9417 |     - |   590M |   0 | 330 | 564 | 571 |   7 |  8 |   0 |   0 | 2.443464e+00 | 6.000000e+00 | 145.55%| unknown
 15.6s|     1 |     0 |  9417 |     - |   590M |   0 | 330 | 564 | 571 |   7 |  8 |   0 |   0 | 2.443464e+00 | 6.000000e+00 | 145.55%| unknown
 15.7s|     1 |     0 |  9547 |     - |   592M |   0 | 330 | 564 | 572 |   8 |  9 |   0 |   0 | 2.463090e+00 | 6.000000e+00 | 143.60%| unknown
 15.9s|     1 |     0 |  9615 |     - |   594M |   0 | 330 | 564 | 573 |   9 | 10 |   0 |   0 | 2.468951e+00 | 6.000000e+00 | 143.02%| unknown
 time | node  | left  |LP iter|LP it/n|mem/heur|mdpt |vars |cons |rows |cuts |sepa|confs|strbr|  dualbound   | primalbound  |  gap   | compl. 
 15.9s|     1 |     0 |  9615 |     - |   594M |   0 | 330 | 564 | 573 |   9 | 10 |   0 |   0 | 2.468951e+00 | 6.000000e+00 | 143.02%| unknown
 16.0s|     1 |     0 |  9703 |     - |   595M |   0 | 330 | 564 | 574 |  10 | 11 |   0 |   0 | 2.475916e+00 | 6.000000e+00 | 142.33%| unknown
 16.0s|     1 |     0 |  9745 |     - |   595M |   0 | 330 | 564 | 575 |  11 | 12 |   0 |   0 | 2.479456e+00 | 6.000000e+00 | 141.99%| unknown
 16.1s|     1 |     0 |  9796 |     - |   595M |   0 | 330 | 564 | 576 |  12 | 13 |   0 |   0 | 2.485466e+00 | 6.000000e+00 | 141.40%| unknown
 16.1s|     1 |     0 |  9830 |     - |   596M |   0 | 330 | 564 | 575 |  13 | 14 |   0 |   0 | 2.486942e+00 | 6.000000e+00 | 141.26%| unknown
 16.2s|     1 |     0 |  9860 |     - |   597M |   0 | 330 | 564 | 576 |  14 | 15 |   0 |   0 | 2.488057e+00 | 6.000000e+00 | 141.15%| unknown
 16.2s|     1 |     0 |  9888 |     - |   598M |   0 | 330 | 564 | 577 |  15 | 16 |   0 |   0 | 2.490044e+00 | 6.000000e+00 | 140.96%| unknown
 16.3s|     1 |     0 |  9917 |     - |   598M |   0 | 330 | 564 | 578 |  16 | 18 |   0 |   0 | 2.490911e+00 | 6.000000e+00 | 140.88%| unknown
 16.3s|     1 |     0 |  9947 |     - |   598M |   0 | 330 | 564 | 579 |  17 | 19 |   0 |   0 | 2.493536e+00 | 6.000000e+00 | 140.62%| unknown
r16.3s|     1 |     0 |  9947 |     - |shifting|   0 | 330 | 564 | 579 |  17 | 19 |   0 |   0 | 2.493536e+00 | 6.000000e+00 | 140.62%| unknown
 16.4s|     1 |     0 |  9970 |     - |   598M |   0 | 330 | 564 | 580 |  18 | 20 |   0 |   0 | 2.494498e+00 | 6.000000e+00 | 140.53%| unknown
r16.4s|     1 |     0 |  9970 |     - |shifting|   0 | 330 | 564 | 580 |  18 | 20 |   0 |   0 | 2.494498e+00 | 6.000000e+00 | 140.53%| unknown
 16.4s|     1 |     0 |  9970 |     - |   598M |   0 | 330 | 564 | 580 |  18 | 20 |   0 |   0 | 2.494498e+00 | 6.000000e+00 | 140.53%| unknown
 16.4s|     1 |     0 |  9987 |     - |   598M |   0 | 330 | 564 | 578 |  19 | 21 |   0 |   0 | 2.494930e+00 | 6.000000e+00 | 140.49%| unknown
 19.2s|     1 |     2 | 12477 |     - |   598M |   0 | 330 | 564 | 578 |  19 | 23 |   0 |  20 | 2.512124e+00 | 6.000000e+00 | 138.84%| unknown
(run 3, node 1) restarting after 14 global fixings of integer variables

(restart) converted 16 cuts from the global cut pool into linear constraints

presolving:
(round 1, fast)       14 del vars, 0 del conss, 0 add conss, 0 chg bounds, 0 chg sides, 4108 chg coeffs, 0 upgd conss, 0 impls, 0 clqs
(round 2, exhaustive) 14 del vars, 0 del conss, 0 add conss, 0 chg bounds, 0 chg sides, 4108 chg coeffs, 2 upgd conss, 0 impls, 0 clqs
presolving (3 rounds: 3 fast, 2 medium, 2 exhaustive):
 14 deleted vars, 0 deleted constraints, 0 added constraints, 0 tightened bounds, 0 added holes, 0 changed sides, 4108 changed coefficients
 0 implications, 0 cliques
presolved problem has 316 variables (316 bin, 0 int, 0 impl, 0 cont) and 580 constraints
      2 constraints of type <knapsack>
     16 constraints of type <linear>
    562 constraints of type <logicor>
transformed objective value is always integral (scale: 1)
Presolving Time: 3.58
transformed 87/100 original solutions to the transformed problem space

 time | node  | left  |LP iter|LP it/n|mem/heur|mdpt |vars |cons |rows |cuts |sepa|confs|strbr|  dualbound   | primalbound  |  gap   | compl. 
 19.6s|     1 |     0 | 12789 |     - |   596M |   0 | 316 | 580 | 580 |   0 |  0 |   0 |  20 | 2.512124e+00 | 6.000000e+00 | 138.84%| unknown
 19.7s|     1 |     0 | 12873 |     - |   596M |   0 | 316 | 580 | 581 |   1 |  1 |   0 |  20 | 2.512124e+00 | 6.000000e+00 | 138.84%| unknown
 19.9s|     1 |     0 | 12939 |     - |   596M |   0 | 316 | 580 | 582 |   2 |  2 |   0 |  20 | 2.512124e+00 | 6.000000e+00 | 138.84%| unknown
 20.1s|     1 |     0 | 13112 |     - |   596M |   0 | 316 | 580 | 583 |   3 |  3 |   0 |  20 | 2.561475e+00 | 6.000000e+00 | 134.24%| unknown
 20.2s|     1 |     0 | 13184 |     - |   596M |   0 | 316 | 580 | 584 |   4 |  4 |   0 |  20 | 2.563922e+00 | 6.000000e+00 | 134.02%| unknown
 20.4s|     1 |     0 | 13238 |     - |   596M |   0 | 316 | 580 | 585 |   5 |  5 |   0 |  20 | 2.566668e+00 | 6.000000e+00 | 133.77%| unknown
 20.6s|     1 |     0 | 13295 |     - |   596M |   0 | 316 | 580 | 586 |   6 |  6 |   0 |  20 | 2.571987e+00 | 6.000000e+00 | 133.28%| unknown
 21.1s|     1 |     0 | 14327 |     - |   596M |   0 | 316 | 580 | 587 |   7 |  7 |   0 |  20 | 2.856037e+00 | 6.000000e+00 | 110.08%| unknown
 21.1s|     1 |     0 | 14327 |     - |   596M |   0 | 316 | 580 | 587 |   7 |  7 |   0 |  20 | 2.856037e+00 | 6.000000e+00 | 110.08%| unknown
 21.3s|     1 |     0 | 14846 |     - |   597M |   0 | 316 | 580 | 588 |   8 |  8 |   0 |  20 | 3.000000e+00 | 6.000000e+00 | 100.00%| unknown
 21.5s|     1 |     0 | 15135 |     - |   598M |   0 | 316 | 580 | 589 |   9 |  9 |   0 |  20 | 3.000000e+00 | 6.000000e+00 | 100.00%| unknown
 21.7s|     1 |     0 | 15439 |     - |   599M |   0 | 316 | 580 | 590 |  10 | 10 |   0 |  20 | 3.000000e+00 | 6.000000e+00 | 100.00%| unknown
 21.8s|     1 |     0 | 15636 |     - |   599M |   0 | 316 | 580 | 591 |  11 | 11 |   0 |  20 | 3.000000e+00 | 6.000000e+00 | 100.00%| unknown
 40.0s|     1 |     2 | 26551 |     - |   599M |   0 | 316 | 580 | 591 |  11 | 13 |   0 | 105 | 3.000000e+00 | 6.000000e+00 | 100.00%| unknown
*45.2s|    27 |     3 | 34804 | 962.7 |strongbr|  12 | 316 | 581 | 565 |  19 |  7 | 129 | 306 | 3.000000e+00 | 5.000000e+00 |  66.67%|  39.30%
 time | node  | left  |LP iter|LP it/n|mem/heur|mdpt |vars |cons |rows |cuts |sepa|confs|strbr|  dualbound   | primalbound  |  gap   | compl. 
 60.8s|   100 |    16 | 50572 | 428.3 |   600M |  17 | 316 | 690 | 572 |  49 |  0 | 239 | 655 | 3.000000e+00 | 5.000000e+00 |  66.67%|  61.48%
 65.7s|   200 |    44 | 66241 | 293.8 |   602M |  31 | 316 | 691 | 566 |  58 |  1 | 240 | 689 | 3.000000e+00 | 5.000000e+00 |  66.67%|  61.55%
 68.6s|   300 |    74 | 77743 | 234.6 |   602M |  38 | 316 | 691 | 566 |  58 |  0 | 243 | 689 | 3.000000e+00 | 5.000000e+00 |  66.67%|  61.55%
 70.6s|   400 |   112 | 86884 | 199.0 |   607M |  49 | 316 | 699 | 568 |  84 |  1 | 252 | 705 | 3.000000e+00 | 5.000000e+00 |  66.67%|  61.55%
 71.7s|   500 |   142 | 93797 | 173.1 |   607M |  58 | 316 | 711 | 568 |  89 |  5 | 266 | 723 | 3.000000e+00 | 5.000000e+00 |  66.67%|  61.55%
 72.9s|   600 |   182 | 99968 | 154.6 |   607M |  65 | 316 | 716 | 568 |  89 |  2 | 285 | 757 | 3.000000e+00 | 5.000000e+00 |  66.67%|  61.55%
 74.6s|   700 |   218 |107955 | 144.0 |   607M |  73 | 316 | 718 | 566 | 103 |  1 | 304 | 791 | 3.000000e+00 | 5.000000e+00 |  66.67%|  63.23%
 76.5s|   800 |   240 |118342 | 139.0 |   607M |  73 | 316 | 723 | 566 | 123 |  0 | 309 | 796 | 3.000000e+00 | 5.000000e+00 |  66.67%|  64.20%
 78.0s|   900 |   262 |129693 | 136.2 |   607M |  73 | 316 | 730 | 566 | 127 |  2 | 318 | 807 | 3.000000e+00 | 5.000000e+00 |  66.67%|  64.49%
 79.2s|  1000 |   278 |138529 | 131.4 |   607M |  73 | 316 | 733 | 566 | 135 |  0 | 321 | 811 | 3.000000e+00 | 5.000000e+00 |  66.67%|  64.55%
 81.6s|  1100 |   288 |147168 | 127.3 |   607M |  73 | 316 | 736 | 566 | 143 |  0 | 324 | 816 | 3.000000e+00 | 5.000000e+00 |  66.67%|  64.60%
 82.6s|  1200 |   308 |154621 | 122.9 |   606M |  73 | 316 | 736 | 566 | 154 |  0 | 324 | 817 | 3.000000e+00 | 5.000000e+00 |  66.67%|  64.61%
 84.1s|  1300 |   324 |162846 | 119.8 |   606M |  76 | 316 | 737 | 571 | 169 |  1 | 338 | 851 | 3.000000e+00 | 5.000000e+00 |  66.67%|  64.62%
 84.8s|  1400 |   344 |168699 | 115.4 |   606M |  76 | 316 | 737 | 566 | 169 |  1 | 338 | 851 | 3.000000e+00 | 5.000000e+00 |  66.67%|  64.63%
 85.6s|  1500 |   358 |175591 | 112.3 |   606M |  76 | 316 | 738 | 566 | 169 |  1 | 339 | 852 | 3.000000e+00 | 5.000000e+00 |  66.67%|  64.64%
 time | node  | left  |LP iter|LP it/n|mem/heur|mdpt |vars |cons |rows |cuts |sepa|confs|strbr|  dualbound   | primalbound  |  gap   | compl. 
 86.3s|  1600 |   366 |181939 | 109.3 |   606M |  76 | 316 | 738 | 569 | 169 |  0 | 339 | 852 | 3.000000e+00 | 5.000000e+00 |  66.67%|  64.64%
 87.3s|  1700 |   384 |188539 | 106.7 |   606M |  76 | 316 | 740 | 568 | 182 |  1 | 346 | 861 | 3.000000e+00 | 5.000000e+00 |  66.67%|  64.64%
 88.1s|  1800 |   392 |194609 | 104.2 |   606M |  76 | 316 | 739 | 569 | 192 |  1 | 346 | 861 | 3.000000e+00 | 5.000000e+00 |  66.67%|  64.64%
 89.0s|  1900 |   402 |200256 | 101.7 |   606M |  76 | 316 | 739 | 566 | 208 |  1 | 346 | 861 | 3.000000e+00 | 5.000000e+00 |  66.67%|  64.64%
 90.0s|  2000 |   408 |206120 |  99.5 |   606M |  76 | 316 | 738 | 570 | 238 |  0 | 346 | 863 | 3.000000e+00 | 5.000000e+00 |  66.67%|  64.64%
 91.2s|  2100 |   408 |212335 |  97.7 |   608M |  76 | 316 | 749 | 566 | 257 |  1 | 366 | 893 | 3.079386e+00 | 5.000000e+00 |  62.37%|  65.51%
 92.4s|  2200 |   408 |218845 |  96.3 |   608M |  76 | 316 | 766 | 569 | 279 |  1 | 383 | 916 | 3.092017e+00 | 5.000000e+00 |  61.71%|  66.79%
 93.6s|  2300 |   406 |224043 |  94.3 |   608M |  76 | 316 | 788 | 569 | 298 |  0 | 408 | 947 | 3.109066e+00 | 5.000000e+00 |  60.82%|  68.12%
 94.2s|  2400 |   404 |228316 |  92.2 |   608M |  76 | 316 | 796 | 569 | 303 |  1 | 425 | 964 | 3.124033e+00 | 5.000000e+00 |  60.05%|  68.24%
 94.8s|  2500 |   400 |231895 |  89.9 |   608M |  76 | 316 | 813 | 570 | 303 |  0 | 449 | 992 | 3.124033e+00 | 5.000000e+00 |  60.05%|  68.24%
 95.4s|  2600 |   396 |235804 |  88.0 |   608M |  76 | 316 | 820 | 569 | 304 |  1 | 465 |1013 | 3.134087e+00 | 5.000000e+00 |  59.54%|  68.40%
 96.0s|  2700 |   388 |239480 |  86.1 |   608M |  76 | 316 | 832 | 571 | 304 |  2 | 490 |1045 | 3.134087e+00 | 5.000000e+00 |  59.54%|  68.40%
 96.9s|  2800 |   378 |244693 |  84.9 |   608M |  76 | 316 | 845 | 568 | 309 |  1 | 508 |1069 | 3.135644e+00 | 5.000000e+00 |  59.46%|  68.44%
 97.8s|  2900 |   372 |250103 |  83.8 |   608M |  76 | 316 | 856 | 573 | 313 |  0 | 526 |1098 | 3.135644e+00 | 5.000000e+00 |  59.46%|  68.59%
 98.6s|  3000 |   358 |254800 |  82.6 |   609M |  76 | 316 | 860 | 568 | 319 |  1 | 547 |1132 | 3.135644e+00 | 5.000000e+00 |  59.46%|  68.66%
 time | node  | left  |LP iter|LP it/n|mem/heur|mdpt |vars |cons |rows |cuts |sepa|confs|strbr|  dualbound   | primalbound  |  gap   | compl. 
 99.1s|  3100 |   340 |258372 |  81.1 |   609M |  76 | 316 | 863 | 571 | 319 |  0 | 556 |1152 | 3.180790e+00 | 5.000000e+00 |  57.19%|  69.04%
 99.8s|  3200 |   310 |263213 |  80.1 |   609M |  76 | 316 | 866 | 569 | 319 |  0 | 572 |1179 | 3.200077e+00 | 5.000000e+00 |  56.25%|  69.22%
  101s|  3300 |   280 |267700 |  79.0 |   609M |  76 | 316 | 867 | 570 | 324 |  0 | 585 |1208 | 3.222521e+00 | 5.000000e+00 |  55.16%|  70.55%
  101s|  3400 |   234 |272628 |  78.1 |   609M |  76 | 316 | 869 | 573 | 325 |  1 | 602 |1235 | 3.229925e+00 | 5.000000e+00 |  54.80%|  72.13%
  102s|  3500 |   184 |278001 |  77.4 |   609M |  76 | 316 | 859 | 573 | 325 |  0 | 614 |1258 | 3.252862e+00 | 5.000000e+00 |  53.71%|  76.31%
  103s|  3600 |   154 |285700 |  77.4 |   609M |  76 | 316 | 853 | 575 | 325 |  2 | 617 |1289 | 3.262331e+00 | 5.000000e+00 |  53.26%|  76.46%
  104s|  3700 |    70 |290506 |  76.6 |   609M |  76 | 316 | 839 | 578 | 325 |  0 | 617 |1289 | 3.414184e+00 | 5.000000e+00 |  46.45%|  77.47%

SCIP Status        : problem is solved [optimal solution found]
Solving Time (sec) : 104.12
Solving Nodes      : 3770 (total of 3773 nodes in 4 runs)
Primal Bound       : +5.00000000000000e+00 (665 solutions)
Dual Bound         : +5.00000000000000e+00
Gap                : 0.00 %
Solve Status: optimal
Solve Time: 104.14 seconds
